33 46 37 28 56 37 86 18 64 62 68 55 81 78 86 37 39 98 25 91 11 26 51 4 5 61 37 29 86 36 11 80 3 65 63 81 13 69 77 94 46 48 58 36 38 6 37 43 45 96 84 37 46 86 3 47 56 67 31 14 30 10 47 14 29 50 55 28 99 12 77 28 93 41 95 60 28 86 10 37 38 93 25 32 16 12 17 34 27 74 90 81 48 33 78 8 7 90 32 38 93 95 8 58 87 20 47 75 5 45 52 4 10 36 94 88 70 37 99 63 24 26 8 44 42 85 67 62 98 32 36 44 73 54 60 67 31 42 8 56 62 7 43 49 4 50 57 61 79 44 26 7 6 32 66 44 28 100 73 91 49 53 62 60 94 25 43 95 30 75 84 44 